SCIP Status        : solving was interrupted [time limit reached]
Total Time         :    3600.00
  solving          :    3600.00
  presolving       :       0.00 (included in solving)
  reading          :       0.00
  copying          :       0.21 (79 #copies) (minimal 0.00, maximal 0.00, average 0.00)
Original Problem   :
  Problem name     : ex8_5_5
  Variables        : 6 (0 binary, 0 integer, 0 implicit integer, 6 continuous)
  Constraints      : 5 initial, 5 maximal
  Objective        : minimize, 1 non-zeros (abs.min = 1, abs.max = 1)
Presolved Problem  :
  Problem name     : t_ex8_5_5
  Variables        : 28 (0 binary, 0 integer, 0 implicit integer, 28 continuous)
  Constraints      : 4 initial, 9 maximal
  Objective        : minimize, 1 non-zeros (abs.min = 1, abs.max = 1)
  Nonzeros         : 12 constraint, 0 clique table
Presolvers         :   ExecTime  SetupTime  Calls  FixedVars   AggrVars   ChgTypes  ChgBounds   AddHoles    DelCons    AddCons   ChgSides   ChgCoefs
  boundshift       :       0.00       0.00      0          0          0          0          0          0          0          0          0          0
  convertinttobin  :       0.00       0.00      0          0          0          0          0          0          0          0          0          0
  domcol           :       0.00       0.00      1          0          0          0          0          0          0          0          0          0
  dualagg          :       0.00       0.00      0          0          0          0          0          0          0          0          0          0
  dualcomp         :       0.00       0.00      1          0          0          0          0          0          0          0          0          0
  dualinfer        :       0.00       0.00      0          0          0          0          0          0          0          0          0          0
  dualsparsify     :       0.00       0.00      1          0          0          0          0          0          0          0          0          0
  gateextraction   :       0.00       0.00      0          0          0          0          0          0          0          0          0          0
  implics          :       0.00       0.00      2          0          0          0          0          0          0          0          0          0
  inttobinary      :       0.00       0.00      0          0          0          0          0          0          0          0          0          0
  qpkktref         :       0.00       0.00      0          0          0          0          0          0          0          0          0          0
  redvub           :       0.00       0.00      0          0          0          0          0          0          0          0          0          0
  sparsify         :       0.00       0.00      1          0          0          0          0          0          0          0          0          0
  stuffing         :       0.00       0.00      0          0          0          0          0          0          0          0          0          0
  trivial          :       0.00       0.00      4          0          0          0          0          0          0          0          0          0
  tworowbnd        :       0.00       0.00      0          0          0          0          0          0          0          0          0          0
  dualfix          :       0.00       0.00      4          0          0          0          0          0          0          0          0          0
  genvbounds       :       0.00       0.00      0          0          0          0          0          0          0          0          0          0
  probing          :       0.00       0.00      0          0          0          0          0          0          0          0          0          0
  pseudoobj        :       0.00       0.00      0          0          0          0          0          0          0          0          0          0
  symmetry         :       0.00       0.00      1          0          0          0          0          0          0          0          0          0
  vbounds          :       0.00       0.00      0          0          0          0          0          0          0          0          0          0
  linear           :       0.00       0.00      6          0          1          0          2          0          1          0          0          0
  nonlinear        :       0.00       0.00      8          0          0          0          6          0          0          0          0          0
  benders          :       0.00       0.00      0          0          0          0          0          0          0          0          0          0
  components       :       0.00       0.00      1          0          0          0          0          0          0          0          0          0
  root node        :          -          -      -          0          -          -        276          -          -          -          -          -
Constraints        :     Number  MaxNumber  #Separate #Propagate    #EnfoLP    #EnfoRelax  #EnfoPS    #Check   #ResProp    Cutoffs    DomReds       Cuts    Applied      Conss   Children
  benderslp        :          0          0          0          0   11563983          0      57709      95132          0          0          0          0          0          0          0
  integral         :          0          0          0          0   11563983          0          0      95132          0          0          0          0          0          0          0
  linear           :          1+         6          0    8907491    2338764          0      40742      95127          0      10810     302259          3          3          0          0
  nonlinear        :          3          3   12162733    9034017   11563983          0      57709      95093          0    1654135   53488520    3288493    2937935          0    1064558
  benders          :          0          0          0          0    2402570          0      57709         62          0          0          0          0          0          0          0
  countsols        :          0          0          0          0    2402567          0      57709         62          0          0          0          0          0          0          0
  components       :          0          0          0          0          0          0          0          0          0          0          0          0          0          0          0
Constraint Timings :  TotalTime  SetupTime   Separate  Propagate     EnfoLP     EnfoPS     EnfoRelax   Check    ResProp    SB-Prop
  benderslp        :       1.67       0.00       0.00       0.00       1.65       0.01       0.00       0.00       0.00       0.00
  integral         :       1.65       0.00       0.00       0.00       1.65       0.00       0.00       0.01       0.00       0.00
  linear           :       5.26       0.00       0.00       4.48       0.73       0.03       0.00       0.01       0.00       0.00
  nonlinear        :     556.70       0.00     111.32     226.81     217.89       0.35       0.00       0.33       0.00       0.00
  benders          :       0.36       0.00       0.00       0.00       0.35       0.01       0.00       0.00       0.00       0.00
  countsols        :       0.44       0.00       0.00       0.00       0.42       0.01       0.00       0.00       0.00       0.00
  components       :       0.70       0.00       0.00       0.70       0.00       0.00       0.00       0.00       0.00       0.00
Propagators        : #Propagate   #ResProp    Cutoffs    DomReds
  dualfix          :          2          0          0          0
  genvbounds       :     465617          0          0         57
  nlobbt           :          0          0          0          0
  obbt             :          3          0          0          0
  probing          :          0          0          0          0
  pseudoobj        :   20609415          0        532        138
  redcost          :          0          0          0          0
  rootredcost      :          0          0          0          0
  symmetry         :          0          0          0          0
  vbounds          :          0          0          0          0
Propagator Timings :  TotalTime  SetupTime   Presolve  Propagate    ResProp    SB-Prop
  dualfix          :       0.00       0.00       0.00       0.00       0.00       0.00
  genvbounds       :       5.85       0.00       0.00       5.85       0.00       0.00
  nlobbt           :       0.00       0.00       0.00       0.00       0.00       0.00
  obbt             :       0.00       0.00       0.00       0.00       0.00       0.00
  probing          :       0.00       0.00       0.00       0.00       0.00       0.00
  pseudoobj        :       8.63       0.00       0.00       8.63       0.00       0.00
  redcost          :       4.64       0.00       0.00       4.64       0.00       0.00
  rootredcost      :       1.96       0.00       0.00       1.96       0.00       0.00
  symmetry         :       0.94       0.00       0.00       0.94       0.00       0.00
  vbounds          :       2.71       0.00       0.00       2.71       0.00       0.00
Conflict Analysis  :       Time      Calls    Success    DomReds  Conflicts   Literals    Reconvs ReconvLits   Dualrays   Nonzeros   LP Iters   (pool size: [--,--])
  propagation      :       0.00          0          0          -          0        0.0          0        0.0          -          -          -
  infeasible LP    :      11.52    1054680        564          -          0        0.0          0        0.0        561        3.1          0
  bound exceed. LP :       0.21      19238          0          -          0        0.0          0        0.0          0        0.0          0
  strong branching :       0.00          0          0          -          0        0.0          0        0.0          -          -          0
  pseudo solution  :       0.00          2          0          -          0        0.0          0        0.0          -          -          -
  applied globally :       0.00          -          -          0          0        0.0          -          -        558          -          -
  applied locally  :          -          -          -          3          0        0.0          -          -          3          -          -
Separators         :   ExecTime  SetupTime      Calls  RootCalls    Cutoffs    DomReds  FoundCuts ViaPoolAdd  DirectAdd    Applied ViaPoolApp  DirectApp      Conss
  cut pool         :       0.00          -          0          0          -          -          0          0          -          -          -          -          -    (maximal pool size:          0)
  aggregation      :       0.15       0.00          0          0          0          0          0          0          0          0          0          0          0
  > cmir           :          -          -          -          -          -          -          -          0          0          0          0          0          -
  > flowcover      :          -          -          -          -          -          -          -          0          0          0          0          0          -
  > knapsackcover  :          -          -          -          -          -          -          -          0          0          0          0          0          -
  cgmip            :       0.00       0.00          0          0          0          0          0          0          0          0          0          0          0
  clique           :       0.00       0.00          0          0          0          0          0          0          0          0          0          0          0
  closecuts        :       0.00       0.00          0          0          0          0          0          0          0          0          0          0          0
  convexproj       :       0.00       0.00          0          0          0          0          0          0          0          0          0          0          0
  disjunctive      :       0.00       0.00          0          0          0          0          0          0          0          0          0          0          0
  eccuts           :       0.00       0.00          0          0          0          0          0          0          0          0          0          0          0
  gauge            :       0.00       0.00          0          0          0          0          0          0          0          0          0          0          0
  gomory           :       0.30       0.00          0          0          0          0          0          0          0          0          0          0          0
  > gomorymi       :          -          -          -          -          -          -          -          0          0          0          0          0          -
  > strongcg       :          -          -          -          -          -          -          -          0          0          0          0          0          -
  impliedbounds    :       0.09       0.00          0          0          0          0          0          0          0          0          0          0          0
  interminor       :       0.00       0.00          0          0          0          0          0          0          0          0          0          0          0
  intobj           :       0.00       0.00          0          0          0          0          0          0          0          0          0          0          0
  mcf              :       0.00       0.00          0          0          0          0          0          0          0          0          0          0          0
  minor            :       5.29       0.00     552060          0          0          0         64          0         64         35          0         35          0
  mixing           :       0.13       0.00     552630          0          0          0          0          0          0          0          0          0          0
  oddcycle         :       0.00       0.00          0          0          0          0          0          0          0          0          0          0          0
  rapidlearning    :       0.00       0.00          0          0          0          0          0          0          0          0          0          0          0
  rlt              :       0.00       0.00          0          0          0          0          0          0          0          0          0          0          0
  zerohalf         :       0.14       0.00          0          0          0          0          0          0          0          0          0          0          0
Cutselectors       :   ExecTime  SetupTime      Calls  RootCalls   Selected     Forced   Filtered  RootSelec   RootForc   RootFilt 
  hybrid           :       1.34       0.00    1311700          0    1642378          6      76009          0          0          0
Pricers            :   ExecTime  SetupTime      Calls       Vars
  problem variables:       0.00          -          0          0
Branching Rules    :   ExecTime  SetupTime   BranchLP  BranchExt   BranchPS    Cutoffs    DomReds       Cuts      Conss   Children
  allfullstrong    :       0.00       0.00          0          0          0          0          0          0          0          0
  cloud            :       0.00       0.00          0          0          0          0          0          0          0          0
  distribution     :       0.00       0.00          0          0          0          0          0          0          0          0
  fullstrong       :       0.00       0.00          0          0          0          0          0          0          0          0
  inference        :       0.00       0.00          0          0          0          0          0          0          0          0
  leastinf         :       0.00       0.00          0          0          0          0          0          0          0          0
  lookahead        :       0.00       0.00          0          0          0          0          0          0          0          0
  mostinf          :       0.00       0.00          0          0          0          0          0          0          0          0
  multaggr         :       0.00       0.00          0          0          0          0          0          0          0          0
  nodereopt        :       0.00       0.00          0          0          0          0          0          0          0          0
  pscost           :      12.83       0.00          0    2460276          0          0          0          0          0    4920552
  random           :       0.00       0.00          0          0          0          0          0          0          0          0
  relpscost        :       0.00       0.00          0          0          0          0          0          0          0          0
  vanillafullstrong:       0.00       0.00          0          0          0          0          0          0          0          0
Primal Heuristics  :   ExecTime  SetupTime      Calls      Found       Best
  LP solutions     :       0.00          -          -          0          0
  relax solutions  :       0.00          -          -          0          0
  pseudo solutions :       0.00          -          -          0          0
  strong branching :       0.00          -          -          0          0
  actconsdiving    :       0.00       0.00          0          0          0
  adaptivediving   :       0.70       0.00      10953          0          0
  alns             :       0.82       0.00         79          0          0
  bound            :       0.00       0.00          0          0          0
  clique           :       0.00       0.00          0          0          0
  coefdiving       :       0.00       0.00          0          0          0
  completesol      :       0.00       0.00          0          0          0
  conflictdiving   :       0.65       0.00      12180          0          0
  crossover        :       0.15       0.00          0          0          0
  dins             :       0.00       0.00          0          0          0
  distributiondivin:       0.13       0.00          0          0          0
  dps              :       0.00       0.00          0          0          0
  dualval          :       0.00       0.00          0          0          0
  farkasdiving     :       0.13       0.00          0          0          0
  feaspump         :       0.17       0.00          0          0          0
  fixandinfer      :       0.00       0.00          0          0          0
  fracdiving       :       0.33       0.00      12219          0          0
  gins             :       0.13       0.00          0          0          0
  guideddiving     :       0.11       0.00          0          0          0
  indicator        :       1.66       0.00          0          0          0
  indicatordiving  :       0.00       0.00          0          0          0
  intdiving        :       0.00       0.00          0          0          0
  intshifting      :       0.06       0.00          0          0          0
  linesearchdiving :       0.40       0.00      12179          0          0
  localbranching   :       0.00       0.00          0          0          0
  locks            :       0.00       0.00          0          0          0
  lpface           :       0.81       0.00          0          0          0
  mpec             :       0.16       0.00          0          0          0
  multistart       :       0.09       0.00          1          1          1
  mutation         :       0.00       0.00          0          0          0
  nlpdiving        :       0.05       0.00          0          0          0
  objpscostdiving  :       0.17       0.00          0          0          0
  octane           :       0.00       0.00          0          0          0
  ofins            :       0.66       0.00          0          0          0
  oneopt           :       1.52       0.00          0          0          0
  padm             :       0.00       0.00          0          0          0
  proximity        :       0.00       0.00          0          0          0
  pscostdiving     :       0.11       0.00          0          0          0
  randrounding     :       0.13       0.00          0          0          0
  rens             :       0.97       0.00          0          0          0
  reoptsols        :       0.00       0.00          0          0          0
  repair           :       0.00       0.00          0          0          0
  rins             :       0.11       0.00          0          0          0
  rootsoldiving    :       0.12       0.00          0          0          0
  rounding         :       1.93       0.00          0          0          0
  shiftandpropagate:       0.00       0.00          0          0          0
  shifting         :       0.22       0.00          0          0          0
  simplerounding   :       2.03       0.00          0          0          0
  subnlp           :      22.80       0.00       3447         58          3
  trivial          :       0.00       0.00          2          0          0
  trivialnegation  :       0.00       0.00          0          0          0
  trustregion      :       0.00       0.00          0          0          0
  trysol           :       1.56       0.00          2          2          2
  twoopt           :       0.00       0.00          0          0          0
  undercover       :       0.00       0.00          0          0          0
  vbounds          :       0.00       0.00          0          0          0
  veclendiving     :       0.08       0.00          0          0          0
  zeroobj          :       0.00       0.00          0          0          0
  zirounding       :       0.89       0.00          0          0          0
  other solutions  :          -          -          -          0          -
Expressions        :   #IntEval  IntEvalTi   #RevProp  RevPropTi    DomReds    Cutoffs  #Estimate  EstimTime  Branching  #Simplify SimplifyTi Simplified
  entropy          :   18292140       4.41       1553       0.00         23          0    8302338       0.77          0          8       0.00          0
  log              :   18292145       2.64    9661657       2.11          0          0          0       0.00          0         12       0.00          0
  pow              :   42623095       6.64    8408905       2.77    2398340          0   13869509       1.81    1082242         50       0.00          0
  prod             :    9146133       3.20    7866296       7.35    4343140         20    1211609       0.74     465039         55       0.00         22
  sum              :   36584315      10.83   10693892      10.02    8789261     316092     801619       0.09          0         71       0.00         16
  val              :          0       0.00          0       0.00          0          0          0       0.00          0          0       0.00          0
  var              :   23676897       1.72          0       0.00          0          0          0       0.00          0        156       0.00          7
Nlhdlrs            :    Detects  DetectAll DetectTime   #IntEval  IntEvalTi   #RevProp  RevPropTi    DomReds    Cutoffs   #Enforce   EnfoTime       Cuts  Branching
  soc              :          0          0       0.00          0       0.00          0       0.00          0          0          0       0.00          0          0
  convex           :          3          3       0.00          0       0.00          0       0.00          0          0   51968069      34.41     801752          0
  concave          :          0          0       0.00          0       0.00          0       0.00          0          0          0       0.00          0          0
  quotient         :          2          2       0.00          0       0.00          0       0.00          0          0          0       0.00          0          0
  quadratic        :          3         27       0.00   16838649      23.18   14966965      42.17    6890469      94764          0       0.00          0          0
  default          :         30        190       0.00  124937634      35.61   36632323      45.96   15530764     316944   24185064      34.09    2487447          0
  bilinear         :          7          7       0.00          0       0.00          0       0.00          0          0       2552       0.00          0          0
  perspective      :          0          0       0.00          0       0.00          0       0.00          0          0          0       0.00          0          0
LP                 :       Time      Calls Iterations  Iter/call   Iter/sec  Time-0-It Calls-0-It    ItLimit
  primal LP        :      99.78     637556        768      28.44       7.70      99.69     637529
  dual LP          :    1707.06   14120958   11615468       2.48    6804.39     866.65    9429389
  lex dual LP      :       0.00          0          0       0.00          -
  barrier LP       :       0.00          0          0       0.00          -       0.00          0
  resolve instable :       0.01         12         49       4.08          -
  diving/probing LP:       0.00          6         51       8.50          -
  strong branching :       0.00          0          0       0.00          -          -          -          0
    (at root node) :          -          0          0       0.00          -
  conflict analysis:       0.00          0          0       0.00          -
NLP relaxation     :
  solve time       :       0.00 (0 calls)
  convexity        :  nonconvex (1 linear rows, 0 convex ineq., 1 nonconvex ineq., 2 nonlinear eq. or two-sided ineq.)
NLP Solvers        :  #Problems  ProblemTi    #Solves  SolveTime      #Iter  Time/Iter      #Okay #TimeLimit #IterLimit #LObjLimit #Interrupt  #NumError #EvalError  #OutOfMem #LicenseEr #OtherTerm   #GlobOpt    #LocOpt  #Feasible #LocInfeas #GlobInfea #Unbounded   #Unknown
  ipopt            :          2       0.00       3450      20.62      29861       0.00       3425          0         25          0          0          0          0          0          0          0          0       3425          9          0          0          0         16
B&B Tree           :
  number of runs   :          1
  nodes            :    5818545 (2992555 internal, 2825990 leaves)
  feasible leaves  :          0
  infeas. leaves   :    2718421
  objective leaves :     107568
  nodes (total)    :    5818545 (2992555 internal, 2825990 leaves)
  nodes left       :     162194
  max depth        :         76
  max depth (total):         76
  backtracks       :    1168504 (20.1%)
  early backtracks :          0 (0.0%)
  nodes exc. ref.  :          0 (0.0%)
  delayed cutoffs  :       3084
  repropagations   :     606916 (176989 domain reductions, 1857 cutoffs)
  avg switch length:       9.93
  switching time   :     235.27
Root Node          :
  First LP value   :          -
  First LP Iters   :         14 (20057.31 Iter/sec)
  First LP Time    :       0.00
  Final Dual Bound :          -
  Final Root Iters :         16
  Root LP Estimate :                     -
Solution           :
  Solutions found  :         61 (6 improvements)
  First Solution   : -1.07533584692178e-02   (in run 1, after 1 nodes, 0.50 seconds, depth 0, found by <multistart>)
  Gap First Sol.   :   infinite
  Gap Last Sol.    :       2.68 %
  Primal Bound     : -1.07573790252948e-02   (in run 1, after 5156709 nodes, 3160.89 seconds, depth 63, found by <trysol>)
  Dual Bound       : -1.09914313146313e-02
  Gap              :       2.18 %
Integrals          :      Total       Avg%
  primal-dual      :   51996.54      14.44
  primal-ref       :          -          - (not evaluated)
  dual-ref         :          -          - (not evaluated)
